p cnf 11 26
11 0 
-11 -7 -10 1 0 
-11 7 1 0 
-11 10 -8 5 0 
-11 9 5 0 
-11 -10 8 3 0 
-11 -9 3 0 
-11 8 10 7 0 
-11 8 7 0 
2 0 
4 0 
6 0 
-1 7 10 0 
-1 9 -8 0 
-1 -3 0 
-5 -3 -9 0 
-5 9 3 0 
-5 -9 -8 0 
-3 -10 0 
-3 -10 8 0 
-9 -8 -7 0 
-9 -7 8 0 
-9 -8 -10 0 
-7 10 8 0 
-7 -8 -10 0 
10 -8 0 
